31
0	0
1	593
2	0
3	0
4	159
5	601
6	596
7	222
8	593
9	119
10	338
11	476
12	123
13	0
14	127
15	610
16	598
17	848
18	607
19	507
20	950
21	611
22	609
23	159
24	604
25	613
26	595
27	607
28	326
29	618
30	952
